problems/csplib-prob056/sonet-models/noch/O2/lingeling/model_3_1-s2ring12-solution000001.eprime-solution
language ESSENCE' 1.0

letting network_ExplicitWithFlagsR5_Flags be [1, 1, 1, 1, 2, 0; int(1..6)]
letting network_ExplicitWithFlagsR5_Values_ExplicitVarSizeWithMarker_Marker be [0, 2, 3, 5, 5, 0; int(1..6)]
letting network_ExplicitWithFlagsR5_Values_ExplicitVarSizeWithMarker_Values be
        [[1, 1, 1, 1, 1; int(1..5)], [6, 10, 1, 1, 1; int(1..5)], [5, 7, 8, 1, 1; int(1..5)],
         [1, 3, 5, 9, 10; int(1..5)], [2, 4, 6, 8, 9; int(1..5)], [1, 1, 1, 1, 1; int(1..5)]; int(1..6)]
