problems/csplib-prob056/sonet-models/noch/O2/lingeling/model_3_1-s2ring12-solution000001.solution
language Essence 1.3

letting network be mset({}, {1, 3, 5, 9, 10}, {2, 4, 6, 8, 9}, {2, 4, 6, 8, 9}, {5, 7, 8}, {6, 10})
$ Here is a simple "visualisation" for the value above.
$ 
$  1  3  5  9 10
$  2  4  6  8  9
$  2  4  6  8  9
$  5  7  8
$  6 10

